p cnf 16 156
1 2 3 4 5 0
1 2 3 -4 5 0
1 2 -3 4 5 0
1 2 -3 -4 5 0
1 -2 3 4 5 0
1 -2 3 -4 5 0
1 -2 -3 4 5 0
1 -2 -3 -4 5 0
-1 2 3 4 5 0
-1 2 3 -4 5 0
-1 2 -3 4 5 0
-1 2 -3 -4 5 0
6 7 8 9 1 2 3 4 10 0
6 7 8 9 1 2 3 -4 13 0
6 7 8 9 1 2 -3 4 10 0
6 7 8 9 1 2 -3 -4 12 0
6 7 8 9 1 -2 3 4 11 0
6 7 8 9 1 -2 3 -4 12 0
6 7 8 9 1 -2 -3 4 12 0
6 7 8 9 1 -2 -3 -4 11 0
6 7 8 9 -1 2 3 4 12 0
6 7 8 9 -1 2 3 -4 12 0
6 7 8 9 -1 2 -3 4 12 0
6 7 8 9 -1 2 -3 -4 11 0
6 7 8 -9 1 2 3 4 14 0
6 7 8 -9 1 2 3 -4 13 0
6 7 8 -9 1 2 -3 4 11 0
6 7 8 -9 1 2 -3 -4 11 0
6 7 8 -9 1 -2 3 4 12 0
6 7 8 -9 1 -2 3 -4 11 0
6 7 8 -9 1 -2 -3 4 12 0
6 7 8 -9 1 -2 -3 -4 12 0
6 7 8 -9 -1 2 3 4 13 0
6 7 8 -9 -1 2 3 -4 12 0
6 7 8 -9 -1 2 -3 4 12 0
6 7 8 -9 -1 2 -3 -4 11 0
6 7 -8 9 1 2 3 4 10 0
6 7 -8 9 1 2 3 -4 10 0
6 7 -8 9 1 2 -3 4 13 0
6 7 -8 9 1 2 -3 -4 12 0
6 7 -8 9 1 -2 3 4 11 0
6 7 -8 9 1 -2 3 -4 12 0
6 7 -8 9 1 -2 -3 4 12 0
6 7 -8 9 1 -2 -3 -4 11 0
6 7 -8 9 -1 2 3 4 12 0
6 7 -8 9 -1 2 3 -4 12 0
6 7 -8 9 -1 2 -3 4 11 0
6 7 -8 9 -1 2 -3 -4 12 0
6 7 -8 -9 1 2 3 4 13 0
6 7 -8 -9 1 2 3 -4 13 0
6 7 -8 -9 1 2 -3 4 11 0
6 7 -8 -9 1 2 -3 -4 13 0
6 7 -8 -9 1 -2 3 4 11 0
6 7 -8 -9 1 -2 3 -4 12 0
6 7 -8 -9 1 -2 -3 4 11 0
6 7 -8 -9 1 -2 -3 -4 12 0
6 7 -8 -9 -1 2 3 4 12 0
6 7 -8 -9 -1 2 3 -4 12 0
6 7 -8 -9 -1 2 -3 4 13 0
6 7 -8 -9 -1 2 -3 -4 13 0
6 -7 8 9 1 2 3 4 12 0
6 -7 8 9 1 2 3 -4 13 0
6 -7 8 9 1 2 -3 4 15 0
6 -7 8 9 1 2 -3 -4 12 0
6 -7 8 9 1 -2 3 4 11 0
6 -7 8 9 1 -2 3 -4 12 0
6 -7 8 9 1 -2 -3 4 11 0
6 -7 8 9 1 -2 -3 -4 12 0
6 -7 8 9 -1 2 3 4 11 0
6 -7 8 9 -1 2 3 -4 11 0
6 -7 8 9 -1 2 -3 4 13 0
6 -7 8 9 -1 2 -3 -4 11 0
6 -7 8 -9 1 2 3 4 11 0
6 -7 8 -9 1 2 3 -4 13 0
6 -7 8 -9 1 2 -3 4 12 0
6 -7 8 -9 1 2 -3 -4 16 0
6 -7 8 -9 1 -2 3 4 12 0
6 -7 8 -9 1 -2 3 -4 11 0
6 -7 8 -9 1 -2 -3 4 12 0
6 -7 8 -9 1 -2 -3 -4 11 0
6 -7 8 -9 -1 2 3 4 11 0
6 -7 8 -9 -1 2 3 -4 11 0
6 -7 8 -9 -1 2 -3 4 13 0
6 -7 8 -9 -1 2 -3 -4 10 0
6 -7 -8 9 1 2 3 4 11 0
6 -7 -8 9 1 2 3 -4 12 0
6 -7 -8 9 1 2 -3 4 13 0
6 -7 -8 9 1 2 -3 -4 13 0
6 -7 -8 9 1 -2 3 4 16 0
6 -7 -8 9 1 -2 3 -4 12 0
6 -7 -8 9 1 -2 -3 4 12 0
6 -7 -8 9 1 -2 -3 -4 11 0
6 -7 -8 9 -1 2 3 4 12 0
6 -7 -8 9 -1 2 3 -4 12 0
6 -7 -8 9 -1 2 -3 4 11 0
6 -7 -8 9 -1 2 -3 -4 13 0
6 -7 -8 -9 1 2 3 4 11 0
6 -7 -8 -9 1 2 3 -4 11 0
6 -7 -8 -9 1 2 -3 4 11 0
6 -7 -8 -9 1 2 -3 -4 11 0
6 -7 -8 -9 1 -2 3 4 14 0
6 -7 -8 -9 1 -2 3 -4 10 0
6 -7 -8 -9 1 -2 -3 4 11 0
6 -7 -8 -9 1 -2 -3 -4 13 0
6 -7 -8 -9 -1 2 3 4 12 0
6 -7 -8 -9 -1 2 3 -4 12 0
6 -7 -8 -9 -1 2 -3 4 12 0
6 -7 -8 -9 -1 2 -3 -4 12 0
-6 7 8 9 1 2 3 4 11 0
-6 7 8 9 1 2 3 -4 11 0
-6 7 8 9 1 2 -3 4 11 0
-6 7 8 9 1 2 -3 -4 13 0
-6 7 8 9 1 -2 3 4 12 0
-6 7 8 9 1 -2 3 -4 13 0
-6 7 8 9 1 -2 -3 4 10 0
-6 7 8 9 1 -2 -3 -4 12 0
-6 7 8 9 -1 2 3 4 13 0
-6 7 8 9 -1 2 3 -4 11 0
-6 7 8 9 -1 2 -3 4 13 0
-6 7 8 9 -1 2 -3 -4 11 0
-6 7 8 -9 1 2 3 4 11 0
-6 7 8 -9 1 2 3 -4 11 0
-6 7 8 -9 1 2 -3 4 11 0
-6 7 8 -9 1 2 -3 -4 12 0
-6 7 8 -9 1 -2 3 4 12 0
-6 7 8 -9 1 -2 3 -4 13 0
-6 7 8 -9 1 -2 -3 4 10 0
-6 7 8 -9 1 -2 -3 -4 10 0
-6 7 8 -9 -1 2 3 4 13 0
-6 7 8 -9 -1 2 3 -4 13 0
-6 7 8 -9 -1 2 -3 4 11 0
-6 7 8 -9 -1 2 -3 -4 11 0
-6 7 -8 9 1 2 3 4 11 0
-6 7 -8 9 1 2 3 -4 11 0
-6 7 -8 9 1 2 -3 4 11 0
-6 7 -8 9 1 2 -3 -4 11 0
-6 7 -8 9 1 -2 3 4 12 0
-6 7 -8 9 1 -2 3 -4 12 0
-6 7 -8 9 1 -2 -3 4 11 0
-6 7 -8 9 1 -2 -3 -4 13 0
-6 7 -8 9 -1 2 3 4 10 0
-6 7 -8 9 -1 2 3 -4 13 0
-6 7 -8 9 -1 2 -3 4 10 0
-6 7 -8 9 -1 2 -3 -4 13 0
-6 7 -8 -9 1 2 3 4 11 0
-6 7 -8 -9 1 2 3 -4 11 0
-6 7 -8 -9 1 2 -3 4 11 0
-6 7 -8 -9 1 2 -3 -4 11 0
-6 7 -8 -9 1 -2 3 4 11 0
-6 7 -8 -9 1 -2 3 -4 12 0
-6 7 -8 -9 1 -2 -3 4 10 0
-6 7 -8 -9 1 -2 -3 -4 10 0
-6 7 -8 -9 -1 2 3 4 11 0
-6 7 -8 -9 -1 2 3 -4 16 0
-6 7 -8 -9 -1 2 -3 4 11 0
-6 7 -8 -9 -1 2 -3 -4 10 0
